%%% Exp_DoseResponse conditions	%%%
%% 2020/Nov/17: satisfiable. It generates 2 plates in 321 msec

%% Plate dimentions: (this is a 96-well plate)
num_rows = 8; %% height
num_cols = 12; %% width

vertical_cell_lines	 = 1;
horizontal_cell_lines	 = 1;
size_empty_edge = 1;
allow_empty_wells = true;

% New and used!
concentrations_on_different_rows = true;
concentrations_on_different_columns = true;

% New and unused! (Restriction: replicates_on_different_plates /\ replicates_on_same_plate == false)
replicates_on_different_plates = true;
replicates_on_same_plate = false;

%% Compounds %%
compounds = 1;

compound_concentrations	 = [1]; 

compound_replicates	 = [2| i in 1..compounds]; 


compound_concentration_names = [|"comp-conc1"|];

compound_concentration_indicators = [""]; 

compound_names = ["BPA"]; 

%% Combinations %%%
combinations 	= 1;

combination_concentrations = 1;

combination_names = ["BPA+H"]; 
  
combination_concentration_names = ["comb-conc1"];


%% Controls %%

num_controls = 4;

control_replicates = [10,10,10,10];

control_concentrations = [2 | i in 1..num_controls];

control_names = ["pos","neg","blank","dmso"];

control_concentration_names =  array2d(1..num_controls, 1..2,["cont\(ceil(i/1))-conc\((i mod 1) + 1)" | i in 1..num_controls*2]);    
